c description: Random 4-CNF over 8 variables and 3 clauses
c generator: CNFgen (0.9.2)
c copyright: (C) 2012-2022 Massimo Lauria <massimo.lauria@uniroma1.it>
c url: https://massimolauria.net/cnfgen
c command line: cnfgen randkcnf 4 8 3
c
p cnf 8 3
1 3 6 8 0
-1 -3 -6 -7 0
2 -4 -5 -8 0
